row=9;
column=9;
Board=[|8,0,9,2,6,1,0,3,0|0,1,7,0,0,0,0,0,3|0,3,8,0,9,7,0,2,0|3,2,1,7,0,0,6,0,5|5,0,3,0,2,0,0,0,4|7,0,4,8,0,3,5,0,2|9,0,2,0,5,0,0,6,1|6,4,5,9,7,2,3,1,8|1,0,6,0,0,8,2,0,9|];
Region=[|1,1,1,2,2,2,2,2,3|1,1,1,1,2,2,3,3,3|1,1,4,5,2,2,3,3,3|4,4,4,5,5,5,6,3,3|4,4,5,5,5,5,6,6,6|4,4,4,5,8,6,6,6,6|7,7,7,7,8,9,9,9,6|7,7,7,8,8,9,9,9,9|7,7,8,8,8,8,8,9,9|];
OE=[|0,1,1,0,0,1,0,1,1|0,1,1,0,0,1,1,0,1|0,1,0,1,1,1,1,0,0|1,0,1,1,0,1,0,0,1|1,1,1,1,0,0,0,1,0|1,0,0,0,1,1,1,1,0|1,0,0,1,1,0,1,0,1|0,0,1,1,1,0,1,1,0|1,1,0,0,1,0,0,1,1|];
